c Output_time 26.03.2020 18:15:39_+0100 1585242939045826092
c ** Program information **
c program_name                          "QBRG_debug"
c version                               "0.3.20"
c date                                  "25.3.2020"
c gid_id                                "673970833836058123f633335630c185360d632e"
c author                                "Oliver Kullmann"
c url                                   "https://github.com/OKullmann/oklibrary/blob/master/Satisfiability/Transformers/Generators/Random/QBRG.cpp"
c ** Machine information **
c machine_name                          "chyna-Lenovo-G50-70"
c bogomips                              3791.08
c ** Compilation information **
c compiler_version                      "g++ 7.5.0"
c compilation_date                      "Mar_26_2020 11:16:30"
c compilation_options                   "--std=c++17 -pedantic -fmax-errors=5 -Wall -Wextra -g -D_GLIBCXX_DEBUG"
c NDEBUG                                0
c OPTIMIZE                              0
c ** Parameters **
c command-line                          "./QBRG_debug" "a40 e40 a40 40" "695*1,1|2-2,1|3-3,1|4-4,1" "" "1,t" ""
c output                                "QuBlRaGe_160_695_1585242938891807945.qdimacs"
c options                               "filtered,renamed"
c num_quantifier_blocks                 4
c  quantifier_blocks                    1:a1-40 2:e41-80 3:a81-120 4:e121-160
c num_clause-blocks                     1
c  clause-blocks                        695 * {1-40,1,1/2} | {41-80,1,1/2} | {81-120,1,1/2} | {121-160,1,1/2}
c num_e-seeds                           37+2=39
c  e-seeds                              1 0 1 0 5 160 2 40 0 40 1 40 0 40 1 695 4 1 1 1 1 2 2 2 1 1 2 3 3 1 1 2 4 4 1 1 2 1 1585242938891806878
p cnf 160 695
a 1 2 3 4 5 6 7 8 9 10 11 12 13 14 15 16 17 18 19 20 21 22 23 24 25 26 27 28 29 30 31 32 33 34 35 36 37 38 39 40 0
e 41 42 43 44 45 46 47 48 49 50 51 52 53 54 55 56 57 58 59 60 61 62 63 64 65 66 67 68 69 70 71 72 73 74 75 76 77 78 79 80 0
a 81 82 83 84 85 86 87 88 89 90 91 92 93 94 95 96 97 98 99 100 101 102 103 104 105 106 107 108 109 110 111 112 113 114 115 116 117 118 119 120 0
e 121 122 123 124 125 126 127 128 129 130 131 132 133 134 135 136 137 138 139 140 141 142 143 144 145 146 147 148 149 150 151 152 153 154 155 156 157 158 159 160 0
14 70 -87 -121 0
-20 -57 87 -121 0
-21 49 88 -121 0
-10 53 -91 -121 0
8 -49 -93 -121 0
-33 -52 -96 -121 0
-18 -42 -100 -121 0
2 61 -113 -121 0
38 -53 113 -121 0
14 79 120 -121 0
9 68 -89 121 0
-20 -51 89 121 0
2 -71 -90 121 0
17 43 98 121 0
2 -68 99 121 0
-35 73 -104 121 0
-7 70 -108 121 0
20 -58 -109 121 0
-20 -62 113 121 0
12 -48 -117 121 0
-11 61 95 -122 0
30 -50 97 -122 0
-6 77 -100 -122 0
15 -43 100 -122 0
-38 53 -102 -122 0
-27 -76 102 -122 0
-19 -73 103 -122 0
38 -42 111 -122 0
-29 -67 -118 -122 0
30 -68 118 -122 0
4 62 -88 122 0
-25 43 -99 122 0
-2 50 104 122 0
-36 -52 113 122 0
-33 -54 113 122 0
7 61 113 122 0
-2 49 -117 122 0
-18 -46 -94 -123 0
-14 -44 -113 -123 0
-33 -72 116 -123 0
-6 59 117 -123 0
-24 -42 85 123 0
26 -54 -88 123 0
-39 57 -90 123 0
6 -68 -90 123 0
40 52 -113 123 0
1 47 97 -124 0
-31 68 100 -124 0
30 63 104 -124 0
1 48 -107 -124 0
3 -48 109 -124 0
-33 57 -110 -124 0
-12 77 110 -124 0
-22 -47 -112 -124 0
30 -67 114 -124 0
18 -69 -118 -124 0
-24 50 120 -124 0
-2 71 83 124 0
-21 76 -84 124 0
22 -46 87 124 0
-14 75 -88 124 0
34 41 -99 124 0
-19 65 99 124 0
-31 53 -100 124 0
-7 53 -107 124 0
-10 44 111 124 0
-1 -80 112 124 0
-6 -67 114 124 0
-13 77 -117 124 0
-6 69 119 124 0
35 49 120 124 0
-17 -51 84 -125 0
27 42 88 -125 0
4 41 -114 -125 0
-28 69 -81 125 0
-36 65 82 125 0
30 78 -90 125 0
-26 -50 -91 125 0
30 62 -99 125 0
25 -80 99 125 0
-12 52 -100 125 0
25 63 109 125 0
-18 -47 -112 125 0
30 65 84 -126 0
-12 -69 -88 -126 0
33 -44 89 -126 0
2 -65 -96 -126 0
-13 -53 -111 -126 0
-24 -43 -114 -126 0
-13 74 117 -126 0
-33 -66 87 126 0
-21 45 -92 126 0
32 -62 92 126 0
-2 -72 -95 126 0
-22 -44 -96 126 0
-17 -50 -99 126 0
-17 69 -99 126 0
-16 -49 100 126 0
-38 -63 -103 126 0
31 -42 -107 126 0
14 -52 -118 126 0
36 -65 89 -127 0
7 -55 -91 -127 0
-6 -59 -102 -127 0
-39 72 -102 -127 0
35 55 114 -127 0
-14 -41 -115 -127 0
40 -61 82 127 0
-20 67 -85 127 0
18 -50 -86 127 0
33 52 -87 127 0
13 50 87 127 0
34 70 -91 127 0
7 46 -97 127 0
6 77 -100 127 0
-21 60 110 127 0
-25 -46 114 127 0
20 -48 -118 127 0
-14 46 -82 -128 0
29 42 -87 -128 0
28 57 87 -128 0
-38 44 100 -128 0
-6 72 -106 -128 0
-25 80 -108 -128 0
18 65 -110 -128 0
31 -64 -115 -128 0
9 47 118 -128 0
8 -48 81 128 0
-40 50 -85 128 0
4 55 -85 128 0
-23 48 -90 128 0
18 -72 90 128 0
11 52 91 128 0
3 -51 97 128 0
10 76 -99 128 0
-18 69 100 128 0
18 65 112 128 0
-23 -76 -113 128 0
20 -74 113 128 0
13 48 -116 128 0
-7 -55 -83 -129 0
-15 -78 92 -129 0
22 -60 100 -129 0
26 72 102 -129 0
-19 -41 103 -129 0
-36 62 -104 -129 0
-25 -41 -105 -129 0
20 -47 107 -129 0
6 58 108 -129 0
-7 -45 -111 -129 0
3 53 -112 -129 0
-31 -51 -81 129 0
-12 45 109 129 0
-12 48 109 129 0
27 -44 111 129 0
-33 -50 112 129 0
-32 -53 119 129 0
-18 -45 91 -130 0
21 71 -94 -130 0
2 72 -99 -130 0
13 -70 -106 -130 0
16 75 109 -130 0
22 46 -118 -130 0
-32 67 81 130 0
10 -68 -86 130 0
-9 -61 -90 130 0
13 43 90 130 0
-15 -77 -98 130 0
20 -43 -108 130 0
26 68 -110 130 0
-5 -80 112 130 0
-30 73 114 130 0
11 64 118 130 0
-21 67 86 -131 0
-15 51 -90 -131 0
-15 -58 -94 -131 0
32 -57 -99 -131 0
30 -74 111 -131 0
8 -45 -113 -131 0
-31 -43 114 -131 0
7 43 119 -131 0
9 58 -120 -131 0
25 77 120 -131 0
28 -53 88 131 0
5 -46 -89 131 0
-6 48 -101 131 0
20 52 102 131 0
-16 -42 104 131 0
3 -61 112 131 0
-31 61 -114 131 0
-40 45 119 131 0
32 46 -93 -132 0
21 41 94 -132 0
17 -76 -95 -132 0
17 48 97 -132 0
-7 72 -103 -132 0
-29 -61 -105 -132 0
-40 62 -106 -132 0
-29 80 106 -132 0
24 51 -110 -132 0
-9 45 -111 -132 0
-18 70 -113 -132 0
-27 -74 -113 -132 0
18 46 86 132 0
-13 59 99 132 0
30 -52 -115 132 0
-27 -77 -118 132 0
34 80 -118 132 0
29 45 118 132 0
28 49 118 132 0
23 -67 84 -133 0
7 56 88 -133 0
-9 63 93 -133 0
-22 -73 97 -133 0
-29 -56 108 -133 0
40 59 -81 133 0
17 67 -85 133 0
-20 79 -85 133 0
-39 47 98 133 0
31 70 99 133 0
8 58 -101 133 0
-4 -80 -101 133 0
14 46 101 133 0
36 -47 -103 133 0
16 49 105 133 0
12 76 -117 133 0
-37 47 -82 -134 0
-31 -61 -84 -134 0
22 -41 87 -134 0
-15 -67 89 -134 0
36 -53 -90 -134 0
-40 -56 -97 -134 0
-5 -45 104 -134 0
-10 66 115 -134 0
-35 -49 -117 -134 0
13 48 82 134 0
19 49 -83 134 0
-22 -78 87 134 0
20 73 -91 134 0
-36 -43 -92 134 0
6 -49 93 134 0
22 -69 93 134 0
10 55 114 134 0
-22 63 -116 134 0
-23 71 83 -135 0
38 -48 86 -135 0
34 -51 -90 -135 0
-5 -48 -104 -135 0
10 -48 110 -135 0
-32 58 111 -135 0
34 74 -102 135 0
33 63 110 135 0
-38 65 110 135 0
20 66 -85 -136 0
-25 69 -86 -136 0
-27 -71 -102 -136 0
-12 -73 -105 -136 0
34 62 -107 -136 0
18 63 -111 -136 0
4 -42 113 -136 0
-33 -65 -81 136 0
-17 53 -82 136 0
-39 54 84 136 0
15 -47 90 136 0
-5 -50 -93 136 0
-11 70 97 136 0
-3 -41 -102 136 0
-14 78 -107 136 0
4 47 109 136 0
-3 -63 118 136 0
-3 47 -81 -137 0
21 -57 85 -137 0
40 -60 94 -137 0
-5 73 -96 -137 0
-4 75 -105 -137 0
13 74 106 -137 0
32 -42 -112 -137 0
2 -65 112 -137 0
-23 52 -84 137 0
-11 -79 -99 137 0
-12 -80 -99 137 0
-8 -44 -101 137 0
28 -50 -102 137 0
2 68 -106 137 0
-2 43 118 137 0
-7 60 -119 137 0
-8 58 81 -138 0
-37 50 -95 -138 0
-40 61 -95 -138 0
-29 -73 96 -138 0
5 78 111 -138 0
-7 54 -113 -138 0
29 -41 -115 -138 0
5 52 82 138 0
-37 -80 -86 138 0
15 76 -92 138 0
25 64 95 138 0
-31 -57 -81 -139 0
-40 47 -86 -139 0
7 -80 89 -139 0
13 -76 90 -139 0
-16 -65 93 -139 0
-1 -55 106 -139 0
-5 59 -108 -139 0
24 49 108 -139 0
13 -70 110 -139 0
-2 53 -111 -139 0
-11 -54 115 -139 0
25 42 119 -139 0
-6 -49 -120 -139 0
21 -56 -82 139 0
32 65 85 139 0
25 75 -89 139 0
13 -60 92 139 0
7 -66 97 139 0
26 55 -101 139 0
-20 -51 -106 139 0
-16 68 108 139 0
-26 -47 110 139 0
10 44 -115 139 0
-3 -64 -116 139 0
-23 -79 117 139 0
30 -72 -82 -140 0
40 -57 -99 -140 0
11 -68 -99 -140 0
18 48 -103 -140 0
9 43 106 -140 0
21 -57 -116 -140 0
-1 68 -116 -140 0
24 52 -117 -140 0
-40 50 -118 -140 0
2 -62 -84 140 0
14 77 86 140 0
6 62 88 140 0
1 45 89 140 0
-28 -67 91 140 0
-37 41 95 140 0
4 -79 96 140 0
17 63 97 140 0
11 57 -101 140 0
34 79 -107 140 0
-23 -49 108 140 0
-38 53 108 140 0
35 70 -115 140 0
-35 -62 117 140 0
-33 73 -118 140 0
-1 -57 118 140 0
-24 -57 119 140 0
19 41 -82 -141 0
-21 -49 90 -141 0
18 -69 -92 -141 0
26 -64 -95 -141 0
29 -79 96 -141 0
8 73 -100 -141 0
-35 69 -103 -141 0
26 49 -106 -141 0
-16 -80 106 -141 0
31 45 -109 -141 0
-36 -76 109 -141 0
40 -59 116 -141 0
-27 -74 -82 141 0
2 -60 83 141 0
-9 -72 83 141 0
28 -41 -90 141 0
30 -68 -93 141 0
-11 -77 101 141 0
3 49 -105 141 0
15 71 -105 141 0
28 -79 -110 141 0
23 41 110 141 0
20 -60 114 141 0
8 46 -119 141 0
17 -41 119 141 0
-1 61 120 141 0
3 48 82 -142 0
40 68 83 -142 0
9 -43 99 -142 0
-31 57 -114 -142 0
-14 65 115 -142 0
-24 -65 116 -142 0
34 -77 118 -142 0
1 78 119 -142 0
-24 69 -89 142 0
36 45 90 142 0
38 -71 -95 142 0
30 -44 95 142 0
25 -64 -111 142 0
-31 -42 -118 142 0
18 49 119 142 0
8 -41 86 -143 0
-11 -57 -92 -143 0
-1 47 92 -143 0
-27 48 95 -143 0
-23 41 -97 -143 0
20 72 -109 -143 0
5 69 111 -143 0
27 -66 -115 -143 0
-40 49 116 -143 0
-3 42 -81 143 0
-33 -49 83 143 0
38 -77 89 143 0
-22 61 -93 143 0
17 79 96 143 0
-27 74 99 143 0
35 65 -102 143 0
38 61 104 143 0
-29 75 106 143 0
-5 -66 108 143 0
19 48 113 143 0
32 -79 -115 143 0
17 54 116 143 0
-23 -60 -117 143 0
-1 -56 -81 -144 0
21 53 86 -144 0
34 44 -90 -144 0
10 -71 -93 -144 0
-21 -60 93 -144 0
34 76 -94 -144 0
-19 -45 -105 -144 0
-1 -70 110 -144 0
9 -78 -116 -144 0
-1 -41 82 144 0
21 -73 83 144 0
8 66 -95 144 0
-27 59 -97 144 0
-27 59 104 144 0
-34 -62 -120 144 0
7 44 -84 -145 0
-35 51 85 -145 0
-2 -57 -92 -145 0
-1 41 -95 -145 0
11 68 105 -145 0
-35 73 113 -145 0
-25 49 -116 -145 0
29 -64 -117 -145 0
-13 80 -88 145 0
-12 69 94 145 0
-26 -72 96 145 0
-3 -67 99 145 0
39 -58 103 145 0
-38 54 -107 145 0
-31 75 89 -146 0
35 -70 -91 -146 0
13 79 94 -146 0
-34 61 98 -146 0
-37 63 -103 -146 0
-32 -66 106 -146 0
-15 74 113 -146 0
-18 52 -118 -146 0
13 42 -120 -146 0
-25 43 120 -146 0
4 73 -83 146 0
18 -74 -85 146 0
39 60 91 146 0
-34 77 96 146 0
12 -72 97 146 0
-12 -68 -98 146 0
-17 74 -106 146 0
18 -72 -108 146 0
16 62 115 146 0
-9 -65 119 146 0
-18 79 -81 -147 0
7 50 -103 -147 0
-26 -75 108 -147 0
3 -66 111 -147 0
-7 -49 -118 -147 0
33 46 -119 -147 0
-18 -67 83 147 0
19 61 86 147 0
12 75 86 147 0
-39 -68 97 147 0
7 41 -98 147 0
10 -58 98 147 0
-21 -75 -101 147 0
5 72 -103 147 0
17 78 -115 147 0
-37 -41 -118 147 0
-8 77 84 -148 0
34 -42 -96 -148 0
-31 -69 -100 -148 0
11 -67 111 -148 0
18 -68 112 -148 0
-4 78 -120 -148 0
-10 68 120 -148 0
-40 54 -84 148 0
-9 -56 95 148 0
15 -66 96 148 0
-10 79 -97 148 0
10 55 102 148 0
-15 -44 -108 148 0
-36 -75 109 148 0
-12 -49 120 148 0
34 -52 84 -149 0
-33 -73 86 -149 0
13 79 -89 -149 0
37 -76 90 -149 0
-30 -55 92 -149 0
11 56 -94 -149 0
-24 43 100 -149 0
-17 44 108 -149 0
-12 64 82 149 0
14 -49 83 149 0
-10 -57 -94 149 0
15 60 95 149 0
39 -44 100 149 0
39 66 102 149 0
9 41 106 149 0
-39 -56 107 149 0
35 65 109 149 0
19 41 -114 149 0
14 45 114 149 0
2 -69 -86 -150 0
28 66 -88 -150 0
-14 74 -90 -150 0
-33 79 93 -150 0
-16 65 95 -150 0
8 54 -96 -150 0
3 48 97 -150 0
-16 80 -98 -150 0
-39 -73 107 -150 0
17 67 -112 -150 0
-8 -46 113 -150 0
-36 51 -117 -150 0
-28 77 -81 150 0
29 75 83 150 0
34 -50 -85 150 0
-15 55 -88 150 0
19 61 103 150 0
-34 -76 -112 150 0
28 -56 -116 150 0
-15 60 117 150 0
-24 -57 -118 150 0
6 -76 -83 -151 0
36 -56 94 -151 0
-24 63 94 -151 0
14 -71 95 -151 0
-30 79 95 -151 0
39 56 105 -151 0
9 -48 -107 -151 0
-24 -79 -116 -151 0
4 47 -94 151 0
32 52 104 151 0
-40 -46 109 151 0
25 59 -110 151 0
-6 65 -112 151 0
-14 46 -116 151 0
-9 64 -116 151 0
3 47 90 -152 0
-25 56 -97 -152 0
-16 -47 114 -152 0
8 77 -81 152 0
-10 -47 82 152 0
-35 -44 -83 152 0
-23 64 84 152 0
28 70 -87 152 0
-18 -58 -90 152 0
-1 -43 90 152 0
-29 -65 -95 152 0
27 63 -98 152 0
-32 79 104 152 0
5 -62 -113 152 0
23 -55 113 152 0
-5 70 -114 152 0
39 -51 -115 152 0
38 -47 118 152 0
-14 80 -88 -153 0
3 69 -93 -153 0
33 57 116 -153 0
1 -63 -117 -153 0
18 -68 119 -153 0
-30 -80 -81 153 0
8 59 -83 153 0
-37 -45 -95 153 0
-3 -69 -99 153 0
-36 -43 102 153 0
-11 44 115 153 0
39 -60 -119 153 0
40 69 81 -154 0
15 54 82 -154 0
-6 60 112 -154 0
-5 75 -117 -154 0
-5 -58 -120 -154 0
-22 73 -84 154 0
-11 72 86 154 0
-34 -80 -88 154 0
1 -53 100 154 0
-15 74 -113 154 0
-36 -45 113 154 0
32 62 113 154 0
-1 64 87 -155 0
31 -43 -88 -155 0
-40 62 97 -155 0
-2 -48 -98 -155 0
-39 75 101 -155 0
6 58 102 -155 0
1 62 -103 -155 0
-33 46 -106 -155 0
-17 65 110 -155 0
14 61 115 -155 0
-28 -50 117 -155 0
14 -44 -88 155 0
26 48 98 155 0
-7 -62 99 155 0
16 79 -109 155 0
40 -70 116 155 0
36 -73 118 155 0
-37 74 81 -156 0
32 -70 83 -156 0
-10 -59 89 -156 0
-11 55 -93 -156 0
24 -77 95 -156 0
16 -69 -104 -156 0
37 -78 104 -156 0
27 52 106 -156 0
29 65 -92 156 0
4 -53 95 156 0
-34 -46 99 156 0
-21 79 103 156 0
40 53 104 156 0
20 -64 105 156 0
-28 50 120 156 0
-19 45 86 -157 0
31 -76 -92 -157 0
-9 72 93 -157 0
40 -56 94 -157 0
-29 -43 98 -157 0
-25 55 -100 -157 0
-38 -48 -103 -157 0
-24 -57 110 -157 0
-20 -48 -111 -157 0
28 -76 -112 -157 0
36 -74 115 -157 0
15 -77 115 -157 0
-13 -45 116 -157 0
-15 67 116 -157 0
-21 -74 87 157 0
-11 -57 -91 157 0
38 55 92 157 0
10 -46 99 157 0
-17 -48 -104 157 0
-8 73 104 157 0
23 73 105 157 0
-10 -46 108 157 0
-16 -69 114 157 0
-5 -61 120 157 0
27 52 81 -158 0
2 -51 -82 -158 0
-6 -55 91 -158 0
33 73 97 -158 0
40 -42 -100 -158 0
36 -55 119 -158 0
-30 74 83 158 0
-33 -45 -89 158 0
-26 -58 -89 158 0
32 62 97 158 0
-16 -71 -98 158 0
-10 -72 -106 158 0
1 -54 -107 158 0
-27 67 -116 158 0
-37 -54 82 -159 0
-24 77 -86 -159 0
-12 -73 90 -159 0
17 46 98 -159 0
-19 79 107 -159 0
-35 -49 -116 -159 0
-12 -78 116 -159 0
28 -75 -118 -159 0
-5 54 -119 -159 0
32 57 93 159 0
7 -42 -95 159 0
-10 -70 -98 159 0
-28 -47 98 159 0
23 44 -111 159 0
-7 -56 -113 159 0
-39 65 114 159 0
-23 60 -115 159 0
17 -47 -120 159 0
3 -69 -120 159 0
20 80 -81 -160 0
10 -78 -85 -160 0
11 -54 94 -160 0
39 71 101 -160 0
12 -48 106 -160 0
29 -75 -108 -160 0
10 55 108 -160 0
7 -61 112 -160 0
-34 -45 114 -160 0
-12 71 -118 -160 0
-12 -72 85 160 0
-31 77 -93 160 0
-20 -77 -102 160 0
-3 -51 105 160 0
-1 -76 -106 160 0
-4 77 -115 160 0
-3 63 -120 160 0
